NAME : portcgen-16-10
COMMENT : portcgen N=16, seed=10
TYPE : TSP
DIMENSION : 16
EDGE_WEIGHT_TYPE : EUC_2D
NODE_COORD_SECTION
1 -237520 396432
2 260171 174849
3 106004 106675
4 316751 -116310
5 16765 -69540
6 -48597 -11258
7 257634 57893
8 97687 111559
9 -388993 17244
10 -261156 249082
11 67796 -290728
12 -72345 87201
13 -286240 -244512
14 -160097 256641
15 127256 -94854
16 -302810 -155437
